% File represents an instance of a Composite Structure problem to be solved by a CP framework
% Created on 2025-03-26 10:42:03.172
T = 50;
n = 36;
m = 60;
edges = [(2, 1),
(7, 8),
(13, 14),
(19, 20),
(25, 26),
(31, 32),
(2, 3),
(9, 8),
(14, 15),
(20, 21),
(26, 27),
(32, 33),
(4, 3),
(9, 10),
(16, 15),
(22, 21),
(28, 27),
(34, 33),
(4, 5),
(10, 11),
(16, 17),
(22, 23),
(28, 29),
(34, 35),
(5, 6),
(11, 12),
(17, 18),
(23, 24),
(29, 30),
(35, 36),
(7, 1),
(13, 7),
(19, 13),
(25, 19),
(31, 25),
(8, 2),
(14, 8),
(20, 14),
(26, 20),
(32, 26),
(9, 3),
(9, 15),
(21, 15),
(27, 21),
(33, 27),
(10, 4),
(16, 10),
(22, 16),
(28, 22),
(34, 28),
(11, 5),
(17, 11),
(23, 17),
(29, 23),
(35, 29),
(12, 6),
(18, 12),
(24, 18),
(30, 24),
(36, 30)];
counts = [|6, 10, 6, 2,
|6, 10, 6, 4,
|6, 10, 6, 2,
|6, 12, 6, 2,
|6, 8, 6, 2,
|6, 4, 6, 2,
|6, 14, 6, 4,
|6, 12, 6, 4,
|6, 12, 6, 6,
|6, 12, 6, 4,
|6, 10, 6, 4,
|6, 6, 6, 2,
|8, 14, 8, 6,
|6, 14, 6, 4,
|6, 12, 6, 4,
|6, 16, 6, 4,
|6, 14, 6, 4,
|6, 10, 6, 2,
|8, 14, 8, 8,
|6, 14, 6, 8,
|6, 12, 6, 8,
|6, 18, 6, 8,
|6, 16, 6, 8,
|6, 12, 6, 6,
|8, 18, 8, 10,
|6, 18, 6, 8,
|6, 14, 6, 8,
|6, 20, 6, 8,
|6, 18, 6, 8,
|6, 16, 6, 8,
|8, 20, 8, 14,
|6, 20, 6, 12,
|6, 18, 6, 8,
|6, 22, 6, 10,
|6, 20, 6, 10,
|6, 20, 6, 8|];
